peakDumbCharging = 14800; 
Machine = anon_enum(16); 
machineSpeed = [3700,3700,3700,3700,3700,3700,3700,3700,3700,3700,3700,3700,3700,3700,3700,3700]; 
machineLoad = [3700,3700,3700,3700,3700,3700,3700,3700,3700,3700,3700,3700,3700,3700,3700,3700]; 
Car = anon_enum(18); 
demandCar = [3840,23840,8560,7120,4440,6840,29800,5600,12160,7320,1960,2880,21360,11560,26440,17240,11520,12960]; 
arrivalCar = [81,79,73,71,64,63,62,60,56,53,51,51,48,44,43,38,35,31]; 
departureCar = [84,88,77,74,66,66,72,63,63,59,54,54,62,52,57,44,43,64]; 
